c WMC file for PBN ISCAS/c880_distill_ISCAS/c880_miter written by probABC
p cnf 833 2172
98 -6 -16 0
-98 6 0
-98 16 0
100 -6 -7 0
-100 6 0
-100 7 0
101 -61 100 0
-101 61 0
-101 -100 0
102 61 -100 0
-102 -61 0
-102 100 0
103 101 102 0
-103 -101 0
-103 -102 0
104 -17 103 0
-104 17 0
-104 -103 0
105 -8 103 0
-105 8 0
-105 -103 0
107 -1 -2 0
-107 1 0
-107 2 0
108 -3 -107 0
-108 3 0
-108 107 0
110 -1 -5 0
-110 1 0
-110 5 0
111 -3 -110 0
-111 3 0
-111 110 0
112 -4 -111 0
-112 4 0
-112 111 0
113 105 -112 0
-113 -105 0
-113 112 0
114 -11 -16 0
-114 11 0
-114 16 0
116 -7 -11 0
-116 7 0
-116 11 0
117 -62 116 0
-117 62 0
-117 -116 0
118 62 -116 0
-118 -62 0
-118 116 0
119 117 118 0
-119 -117 0
-119 -118 0
120 -17 119 0
-120 17 0
-120 -119 0
121 -8 119 0
-121 8 0
-121 -119 0
124 -105 -112 0
-124 105 0
-124 112 0
125 -9 -110 0
-125 9 0
-125 110 0
126 -10 -108 0
-126 10 0
-126 108 0
133 -24 -25 0
-133 24 0
-133 25 0
134 24 25 0
-134 -24 0
-134 -25 0
135 133 134 0
-135 -133 0
-135 -134 0
136 -26 -27 0
-136 26 0
-136 27 0
137 26 27 0
-137 -26 0
-137 -27 0
138 136 137 0
-138 -136 0
-138 -137 0
139 135 138 0
-139 -135 0
-139 -138 0
140 -135 -138 0
-140 135 0
-140 138 0
141 139 140 0
-141 -139 0
-141 -140 0
142 -32 -141 0
-142 32 0
-142 141 0
143 32 141 0
-143 -32 0
-143 -141 0
144 142 143 0
-144 -142 0
-144 -143 0
145 -28 -29 0
-145 28 0
-145 29 0
146 28 29 0
-146 -28 0
-146 -29 0
147 -63 146 0
-147 63 0
-147 -146 0
148 63 -146 0
-148 -63 0
-148 146 0
149 147 148 0
-149 -147 0
-149 -148 0
150 145 -149 0
-150 -145 0
-150 149 0
151 -30 -31 0
-151 30 0
-151 31 0
152 30 31 0
-152 -30 0
-152 -31 0
153 151 152 0
-153 -151 0
-153 -152 0
154 150 153 0
-154 -150 0
-154 -153 0
155 -150 -153 0
-155 150 0
-155 153 0
156 -64 155 0
-156 64 0
-156 -155 0
157 64 -155 0
-157 -64 0
-157 155 0
158 156 157 0
-158 -156 0
-158 -157 0
159 154 -158 0
-159 -154 0
-159 158 0
160 -33 -159 0
-160 33 0
-160 159 0
161 33 159 0
-161 -33 0
-161 -159 0
162 160 161 0
-162 -160 0
-162 -161 0
163 144 162 0
-163 -144 0
-163 -162 0
164 -144 -162 0
-164 144 0
-164 162 0
165 163 164 0
-165 -163 0
-165 -164 0
166 -41 -42 0
-166 41 0
-166 42 0
167 -65 166 0
-167 65 0
-167 -166 0
168 65 -166 0
-168 -65 0
-168 166 0
169 167 168 0
-169 -167 0
-169 -168 0
170 41 42 0
-170 -41 0
-170 -42 0
171 -169 170 0
-171 169 0
-171 -170 0
172 -43 -44 0
-172 43 0
-172 44 0
173 43 44 0
-173 -43 0
-173 -44 0
174 172 173 0
-174 -172 0
-174 -173 0
175 171 174 0
-175 -171 0
-175 -174 0
176 -171 -174 0
-176 171 0
-176 174 0
177 175 176 0
-177 -175 0
-177 -176 0
178 -32 -177 0
-178 32 0
-178 177 0
179 -66 178 0
-179 66 0
-179 -178 0
180 66 -178 0
-180 -66 0
-180 178 0
181 179 180 0
-181 -179 0
-181 -180 0
182 32 177 0
-182 -32 0
-182 -177 0
183 -181 182 0
-183 181 0
-183 -182 0
184 -45 -46 0
-184 45 0
-184 46 0
185 45 46 0
-185 -45 0
-185 -46 0
186 -67 185 0
-186 67 0
-186 -185 0
187 67 -185 0
-187 -67 0
-187 185 0
188 186 187 0
-188 -186 0
-188 -187 0
189 184 -188 0
-189 -184 0
-189 188 0
190 -47 -48 0
-190 47 0
-190 48 0
191 47 48 0
-191 -47 0
-191 -48 0
192 190 191 0
-192 -190 0
-192 -191 0
193 189 192 0
-193 -189 0
-193 -192 0
194 -189 -192 0
-194 189 0
-194 192 0
195 -68 194 0
-195 68 0
-195 -194 0
196 68 -194 0
-196 -68 0
-196 194 0
197 195 196 0
-197 -195 0
-197 -196 0
198 193 -197 0
-198 -193 0
-198 197 0
199 -49 -198 0
-199 49 0
-199 198 0
200 49 198 0
-200 -49 0
-200 -198 0
201 199 200 0
-201 -199 0
-201 -200 0
202 -69 201 0
-202 69 0
-202 -201 0
203 69 -201 0
-203 -69 0
-203 201 0
204 202 203 0
-204 -202 0
-204 -203 0
205 183 -204 0
-205 -183 0
-205 204 0
206 -183 204 0
-206 183 0
-206 -204 0
207 205 206 0
-207 -205 0
-207 -206 0
208 -30 -50 0
-208 30 0
-208 50 0
209 -17 -98 0
-209 17 0
-209 98 0
210 -125 -209 0
-210 125 0
-210 209 0
211 -10 -210 0
-211 10 0
-211 210 0
212 60 -211 0
-212 -60 0
-212 211 0
213 -11 -40 0
-213 11 0
-213 40 0
214 -125 213 0
-214 125 0
-214 -213 0
215 -70 214 0
-215 70 0
-215 -214 0
216 70 -214 0
-216 -70 0
-216 214 0
217 215 216 0
-217 -215 0
-217 -216 0
218 -4 217 0
-218 4 0
-218 -217 0
219 -71 218 0
-219 71 0
-219 -218 0
220 71 -218 0
-220 -71 0
-220 218 0
221 219 220 0
-221 -219 0
-221 -220 0
222 -1 -221 0
-222 1 0
-222 221 0
223 -72 222 0
-223 72 0
-223 -222 0
224 72 -222 0
-224 -72 0
-224 222 0
225 223 224 0
-225 -223 0
-225 -224 0
226 -39 -225 0
-226 39 0
-226 225 0
227 4 8 0
-227 -4 0
-227 -8 0
228 -4 -8 0
-228 4 0
-228 8 0
229 227 228 0
-229 -227 0
-229 -228 0
230 -73 229 0
-230 73 0
-230 -229 0
231 73 -229 0
-231 -73 0
-231 229 0
232 230 231 0
-232 -230 0
-232 -231 0
233 -11 232 0
-233 11 0
-233 -232 0
234 -40 -233 0
-234 40 0
-234 233 0
235 -125 -234 0
-235 125 0
-235 234 0
236 -9 -107 0
-236 9 0
-236 107 0
237 -4 -236 0
-237 4 0
-237 236 0
238 -8 -114 0
-238 8 0
-238 114 0
239 -237 238 0
-239 237 0
-239 -238 0
240 235 239 0
-240 -235 0
-240 -239 0
241 -31 240 0
-241 31 0
-241 -240 0
242 226 241 0
-242 -226 0
-242 -241 0
243 212 -242 0
-243 -212 0
-243 242 0
244 48 -243 0
-244 -48 0
-244 243 0
245 -48 243 0
-245 48 0
-245 -243 0
246 244 245 0
-246 -244 0
-246 -245 0
247 58 246 0
-247 -58 0
-247 -246 0
248 -58 -246 0
-248 58 0
-248 246 0
249 247 248 0
-249 -247 0
-249 -248 0
250 -51 -249 0
-250 51 0
-250 249 0
251 208 250 0
-251 -208 0
-251 -250 0
252 -52 -246 0
-252 52 0
-252 246 0
253 -53 -245 0
-253 53 0
-253 245 0
254 252 253 0
-254 -252 0
-254 -253 0
255 -55 -59 0
-255 55 0
-255 59 0
256 -54 243 0
-256 54 0
-256 -243 0
257 -74 256 0
-257 74 0
-257 -256 0
258 74 -256 0
-258 -74 0
-258 256 0
259 257 258 0
-259 -257 0
-259 -258 0
260 255 -259 0
-260 -255 0
-260 259 0
261 -8 -11 0
-261 8 0
-261 11 0
262 -12 -261 0
-262 12 0
-262 261 0
263 -13 -262 0
-263 13 0
-263 262 0
264 -126 -263 0
-264 126 0
-264 263 0
265 -14 -264 0
-265 14 0
-265 264 0
266 -48 -265 0
-266 48 0
-266 265 0
267 -251 -254 0
-267 251 0
-267 254 0
268 -75 267 0
-268 75 0
-268 -267 0
269 75 -267 0
-269 -75 0
-269 267 0
270 268 269 0
-270 -268 0
-270 -269 0
271 -260 270 0
-271 260 0
-271 -270 0
272 266 -271 0
-272 -266 0
-272 271 0
273 -27 -50 0
-273 27 0
-273 50 0
274 -35 -225 0
-274 35 0
-274 225 0
275 -28 240 0
-275 28 0
-275 -240 0
276 274 275 0
-276 -274 0
-276 -275 0
277 212 -276 0
-277 -212 0
-277 276 0
278 45 -277 0
-278 -45 0
-278 277 0
279 -45 277 0
-279 45 0
-279 -277 0
280 278 279 0
-280 -278 0
-280 -279 0
281 -36 -225 0
-281 36 0
-281 225 0
282 -29 240 0
-282 29 0
-282 -240 0
283 -76 282 0
-283 76 0
-283 -282 0
284 76 -282 0
-284 -76 0
-284 282 0
285 283 284 0
-285 -283 0
-285 -284 0
286 281 -285 0
-286 -281 0
-286 285 0
287 212 -286 0
-287 -212 0
-287 286 0
288 -77 287 0
-288 77 0
-288 -287 0
289 77 -287 0
-289 -77 0
-289 287 0
290 288 289 0
-290 -288 0
-290 -289 0
291 -46 -290 0
-291 46 0
-291 290 0
292 46 290 0
-292 -46 0
-292 -290 0
293 -37 -225 0
-293 37 0
-293 225 0
294 -30 240 0
-294 30 0
-294 -240 0
295 293 294 0
-295 -293 0
-295 -294 0
296 212 -295 0
-296 -212 0
-296 295 0
297 -47 296 0
-297 47 0
-297 -296 0
298 -78 297 0
-298 78 0
-298 -297 0
299 78 -297 0
-299 -78 0
-299 297 0
300 298 299 0
-300 -298 0
-300 -299 0
301 292 300 0
-301 -292 0
-301 -300 0
302 47 -296 0
-302 -47 0
-302 296 0
303 292 302 0
-303 -292 0
-303 -302 0
304 -245 -303 0
-304 245 0
-304 303 0
305 244 -303 0
-305 -244 0
-305 303 0
306 -58 -305 0
-306 58 0
-306 305 0
307 291 301 0
-307 -291 0
-307 -301 0
308 304 -307 0
-308 -304 0
-308 307 0
309 306 -308 0
-309 -306 0
-309 308 0
310 280 -309 0
-310 -280 0
-310 309 0
311 -280 309 0
-311 280 0
-311 -309 0
312 310 311 0
-312 -310 0
-312 -311 0
313 -51 -312 0
-313 51 0
-313 312 0
314 273 313 0
-314 -273 0
-314 -313 0
315 -52 -280 0
-315 52 0
-315 280 0
316 -53 -279 0
-316 53 0
-316 279 0
317 315 316 0
-317 -315 0
-317 -316 0
318 -54 277 0
-318 54 0
-318 -277 0
319 -45 -265 0
-319 45 0
-319 265 0
320 318 319 0
-320 -318 0
-320 -319 0
321 -314 -317 0
-321 314 0
-321 317 0
322 -320 -321 0
-322 320 0
-322 321 0
323 -28 -50 0
-323 28 0
-323 50 0
324 291 292 0
-324 -291 0
-324 -292 0
325 -245 302 0
-325 245 0
-325 -302 0
326 244 302 0
-326 -244 0
-326 -302 0
327 -58 -326 0
-327 58 0
-327 326 0
328 -300 325 0
-328 300 0
-328 -325 0
329 327 -328 0
-329 -327 0
-329 328 0
330 324 -329 0
-330 -324 0
-330 329 0
331 -324 329 0
-331 324 0
-331 -329 0
332 330 331 0
-332 -330 0
-332 -331 0
333 -51 -332 0
-333 51 0
-333 332 0
334 323 333 0
-334 -323 0
-334 -333 0
335 -52 -324 0
-335 52 0
-335 324 0
336 -53 -291 0
-336 53 0
-336 291 0
337 335 336 0
-337 -335 0
-337 -336 0
338 -79 337 0
-338 79 0
-338 -337 0
339 79 -337 0
-339 -79 0
-339 337 0
340 338 339 0
-340 -338 0
-340 -339 0
341 -55 -56 0
-341 55 0
-341 56 0
342 -54 -290 0
-342 54 0
-342 290 0
343 -80 342 0
-343 80 0
-343 -342 0
344 80 -342 0
-344 -80 0
-344 342 0
345 343 344 0
-345 -343 0
-345 -344 0
346 341 -345 0
-346 -341 0
-346 345 0
347 -46 -265 0
-347 46 0
-347 265 0
348 -334 340 0
-348 334 0
-348 -340 0
349 -346 -348 0
-349 346 0
-349 348 0
350 347 -349 0
-350 -347 0
-350 349 0
351 -29 -50 0
-351 29 0
-351 50 0
352 -300 302 0
-352 300 0
-352 -302 0
353 -58 244 0
-353 58 0
-353 -244 0
354 -81 353 0
-354 81 0
-354 -353 0
355 81 -353 0
-355 -81 0
-355 353 0
356 354 355 0
-356 -354 0
-356 -355 0
357 245 -356 0
-357 -245 0
-357 356 0
358 352 -357 0
-358 -352 0
-358 357 0
359 -352 357 0
-359 352 0
-359 -357 0
360 358 359 0
-360 -358 0
-360 -359 0
361 -51 -360 0
-361 51 0
-361 360 0
362 351 361 0
-362 -351 0
-362 -361 0
363 -52 -352 0
-363 52 0
-363 352 0
364 -53 300 0
-364 53 0
-364 -300 0
365 -82 364 0
-365 82 0
-365 -364 0
366 82 -364 0
-366 -82 0
-366 364 0
367 365 366 0
-367 -365 0
-367 -366 0
368 363 -367 0
-368 -363 0
-368 367 0
369 -55 -57 0
-369 55 0
-369 57 0
370 -54 296 0
-370 54 0
-370 -296 0
371 369 370 0
-371 -369 0
-371 -370 0
372 -47 -265 0
-372 47 0
-372 265 0
373 -83 372 0
-373 83 0
-373 -372 0
374 83 -372 0
-374 -83 0
-374 372 0
375 373 374 0
-375 -373 0
-375 -374 0
376 -362 -368 0
-376 362 0
-376 368 0
377 -371 -376 0
-377 371 0
-377 376 0
378 -84 377 0
-378 84 0
-378 -377 0
379 84 -377 0
-379 -84 0
-379 377 0
380 378 379 0
-380 -378 0
-380 -379 0
381 -375 380 0
-381 375 0
-381 -380 0
382 -2 -34 0
-382 2 0
-382 34 0
383 -24 240 0
-383 24 0
-383 -240 0
384 382 383 0
-384 -382 0
-384 -383 0
385 -10 217 0
-385 10 0
-385 -217 0
386 -35 -385 0
-386 35 0
-386 385 0
387 -4 -125 0
-387 4 0
-387 125 0
388 -209 -387 0
-388 209 0
-388 387 0
389 60 -388 0
-389 -60 0
-389 388 0
390 386 389 0
-390 -386 0
-390 -389 0
391 -384 -390 0
-391 384 0
-391 390 0
392 -41 391 0
-392 41 0
-392 -391 0
393 -85 392 0
-393 85 0
-393 -392 0
394 85 -392 0
-394 -85 0
-394 392 0
395 393 394 0
-395 -393 0
-395 -394 0
396 -9 -34 0
-396 9 0
-396 34 0
397 -25 240 0
-397 25 0
-397 -240 0
398 396 397 0
-398 -396 0
-398 -397 0
399 -36 -385 0
-399 36 0
-399 385 0
400 389 399 0
-400 -389 0
-400 -399 0
401 -398 -400 0
-401 398 0
-401 400 0
402 -86 401 0
-402 86 0
-402 -401 0
403 86 -401 0
-403 -86 0
-403 401 0
404 402 403 0
-404 -402 0
-404 -403 0
405 -42 -404 0
-405 42 0
-405 404 0
406 42 404 0
-406 -42 0
-406 -404 0
407 -87 406 0
-407 87 0
-407 -406 0
408 87 -406 0
-408 -87 0
-408 406 0
409 407 408 0
-409 -407 0
-409 -408 0
410 -4 -34 0
-410 4 0
-410 34 0
411 -26 240 0
-411 26 0
-411 -240 0
412 410 411 0
-412 -410 0
-412 -411 0
413 -37 -385 0
-413 37 0
-413 385 0
414 389 413 0
-414 -389 0
-414 -413 0
415 -412 -414 0
-415 412 0
-415 414 0
416 -88 415 0
-416 88 0
-416 -415 0
417 88 -415 0
-417 -88 0
-417 415 0
418 416 417 0
-418 -416 0
-418 -417 0
419 -43 -418 0
-419 43 0
-419 418 0
420 -409 -419 0
-420 409 0
-420 419 0
421 43 418 0
-421 -43 0
-421 -418 0
422 -89 421 0
-422 89 0
-422 -421 0
423 89 -421 0
-423 -89 0
-423 421 0
424 422 423 0
-424 -422 0
-424 -423 0
425 -34 -38 0
-425 34 0
-425 38 0
426 -27 240 0
-426 27 0
-426 -240 0
427 425 426 0
-427 -425 0
-427 -426 0
428 -39 -385 0
-428 39 0
-428 385 0
429 389 428 0
-429 -389 0
-429 -428 0
430 -427 -429 0
-430 427 0
-430 429 0
431 -44 430 0
-431 44 0
-431 -430 0
432 -90 431 0
-432 90 0
-432 -431 0
433 90 -431 0
-433 -90 0
-433 431 0
434 432 433 0
-434 -432 0
-434 -433 0
435 -409 -424 0
-435 409 0
-435 424 0
436 -91 435 0
-436 91 0
-436 -435 0
437 91 -435 0
-437 -91 0
-437 435 0
438 436 437 0
-438 -436 0
-438 -437 0
439 434 438 0
-439 -434 0
-439 -438 0
440 44 -430 0
-440 -44 0
-440 430 0
441 278 309 0
-441 -278 0
-441 -309 0
442 279 441 0
-442 -279 0
-442 -441 0
443 438 440 0
-443 -438 0
-443 -440 0
444 442 -443 0
-444 -442 0
-444 443 0
445 405 420 0
-445 -405 0
-445 -420 0
446 439 -445 0
-446 -439 0
-446 445 0
447 444 -446 0
-447 -444 0
-447 446 0
448 -92 447 0
-448 92 0
-448 -447 0
449 92 -447 0
-449 -92 0
-449 447 0
450 448 449 0
-450 -448 0
-450 -449 0
451 41 -391 0
-451 -41 0
-451 391 0
452 -450 451 0
-452 450 0
-452 -451 0
453 -395 452 0
-453 395 0
-453 -452 0
454 -26 -50 0
-454 26 0
-454 50 0
455 -434 440 0
-455 434 0
-455 -440 0
456 -442 455 0
-456 442 0
-456 -455 0
457 442 -455 0
-457 -442 0
-457 455 0
458 456 457 0
-458 -456 0
-458 -457 0
459 -51 -458 0
-459 51 0
-459 458 0
460 454 459 0
-460 -454 0
-460 -459 0
461 -93 460 0
-461 93 0
-461 -460 0
462 93 -460 0
-462 -93 0
-462 460 0
463 461 462 0
-463 -461 0
-463 -462 0
464 -52 -455 0
-464 52 0
-464 455 0
465 -53 434 0
-465 53 0
-465 -434 0
466 464 465 0
-466 -464 0
-466 -465 0
467 -54 430 0
-467 54 0
-467 -430 0
468 -44 -265 0
-468 44 0
-468 265 0
469 467 468 0
-469 -467 0
-469 -468 0
470 463 -466 0
-470 -463 0
-470 466 0
471 -469 -470 0
-471 469 0
-471 470 0
472 -50 -60 0
-472 50 0
-472 60 0
473 -395 451 0
-473 395 0
-473 -451 0
474 450 473 0
-474 -450 0
-474 -473 0
475 -450 -473 0
-475 450 0
-475 473 0
476 474 475 0
-476 -474 0
-476 -475 0
477 -51 -476 0
-477 51 0
-477 476 0
478 472 477 0
-478 -472 0
-478 -477 0
479 -52 -473 0
-479 52 0
-479 473 0
480 -53 395 0
-480 53 0
-480 -395 0
481 479 480 0
-481 -479 0
-481 -480 0
482 -54 391 0
-482 54 0
-482 -391 0
483 -41 -265 0
-483 41 0
-483 265 0
484 482 483 0
-484 -482 0
-484 -483 0
485 -478 -481 0
-485 478 0
-485 481 0
486 -484 -485 0
-486 484 0
-486 485 0
487 -24 -50 0
-487 24 0
-487 50 0
488 405 -409 0
-488 -405 0
-488 409 0
489 -424 434 0
-489 424 0
-489 -434 0
490 -424 440 0
-490 424 0
-490 -440 0
491 442 -490 0
-491 -442 0
-491 490 0
492 419 489 0
-492 -419 0
-492 -489 0
493 491 -492 0
-493 -491 0
-493 492 0
494 488 -493 0
-494 -488 0
-494 493 0
495 -488 493 0
-495 488 0
-495 -493 0
496 494 495 0
-496 -494 0
-496 -495 0
497 -51 -496 0
-497 51 0
-497 496 0
498 487 497 0
-498 -487 0
-498 -497 0
499 -52 -488 0
-499 52 0
-499 488 0
500 -53 -405 0
-500 53 0
-500 405 0
501 499 500 0
-501 -499 0
-501 -500 0
502 -54 -404 0
-502 54 0
-502 404 0
503 -42 -265 0
-503 42 0
-503 265 0
504 502 503 0
-504 -502 0
-504 -503 0
505 -498 -501 0
-505 498 0
-505 501 0
506 -504 -505 0
-506 504 0
-506 505 0
507 -25 -50 0
-507 25 0
-507 50 0
508 419 -424 0
-508 -419 0
-508 424 0
509 440 442 0
-509 -440 0
-509 -442 0
510 -434 509 0
-510 434 0
-510 -509 0
511 508 -510 0
-511 -508 0
-511 510 0
512 -508 510 0
-512 508 0
-512 -510 0
513 511 512 0
-513 -511 0
-513 -512 0
514 -51 -513 0
-514 51 0
-514 513 0
515 -94 514 0
-515 94 0
-515 -514 0
516 94 -514 0
-516 -94 0
-516 514 0
517 515 516 0
-517 -515 0
-517 -516 0
518 507 -517 0
-518 -507 0
-518 517 0
519 -52 -508 0
-519 52 0
-519 508 0
520 -53 -419 0
-520 53 0
-520 419 0
521 519 520 0
-521 -519 0
-521 -520 0
522 -54 -418 0
-522 54 0
-522 418 0
523 -43 -265 0
-523 43 0
-523 265 0
524 -95 523 0
-524 95 0
-524 -523 0
525 95 -523 0
-525 -95 0
-525 523 0
526 524 525 0
-526 -524 0
-526 -525 0
527 522 -526 0
-527 -522 0
-527 526 0
528 -518 -521 0
-528 518 0
-528 521 0
529 -96 528 0
-529 96 0
-529 -528 0
530 96 -528 0
-530 -96 0
-530 528 0
531 529 530 0
-531 -529 0
-531 -530 0
532 -527 531 0
-532 527 0
-532 -531 0
533 -17 -100 0
-533 17 0
-533 100 0
534 -8 -100 0
-534 8 0
-534 100 0
535 -112 534 0
-535 112 0
-535 -534 0
536 -17 -116 0
-536 17 0
-536 116 0
537 -8 -116 0
-537 8 0
-537 116 0
538 -112 -534 0
-538 112 0
-538 534 0
539 145 146 0
-539 -145 0
-539 -146 0
540 153 539 0
-540 -153 0
-540 -539 0
541 -153 -539 0
-541 153 0
-541 539 0
542 540 541 0
-542 -540 0
-542 -541 0
543 -33 -542 0
-543 33 0
-543 542 0
544 33 542 0
-544 -33 0
-544 -542 0
545 543 544 0
-545 -543 0
-545 -544 0
546 144 545 0
-546 -144 0
-546 -545 0
547 -144 -545 0
-547 144 0
-547 545 0
548 546 547 0
-548 -546 0
-548 -547 0
549 166 170 0
-549 -166 0
-549 -170 0
550 174 549 0
-550 -174 0
-550 -549 0
551 -174 -549 0
-551 174 0
-551 549 0
552 550 551 0
-552 -550 0
-552 -551 0
553 -32 -552 0
-553 32 0
-553 552 0
554 32 552 0
-554 -32 0
-554 -552 0
555 553 554 0
-555 -553 0
-555 -554 0
556 184 185 0
-556 -184 0
-556 -185 0
557 192 556 0
-557 -192 0
-557 -556 0
558 -192 -556 0
-558 192 0
-558 556 0
559 557 558 0
-559 -557 0
-559 -558 0
560 -49 -559 0
-560 49 0
-560 559 0
561 49 559 0
-561 -49 0
-561 -559 0
562 560 561 0
-562 -560 0
-562 -561 0
563 555 562 0
-563 -555 0
-563 -562 0
564 -555 -562 0
-564 555 0
-564 562 0
565 563 564 0
-565 -563 0
-565 -564 0
566 -4 -214 0
-566 4 0
-566 214 0
567 -1 566 0
-567 1 0
-567 -566 0
568 -39 567 0
-568 39 0
-568 -567 0
569 -11 -229 0
-569 11 0
-569 229 0
570 -40 -569 0
-570 40 0
-570 569 0
571 -125 -570 0
-571 125 0
-571 570 0
572 239 571 0
-572 -239 0
-572 -571 0
573 -31 572 0
-573 31 0
-573 -572 0
574 568 573 0
-574 -568 0
-574 -573 0
575 212 -574 0
-575 -212 0
-575 574 0
576 48 -575 0
-576 -48 0
-576 575 0
577 -48 575 0
-577 48 0
-577 -575 0
578 576 577 0
-578 -576 0
-578 -577 0
579 58 578 0
-579 -58 0
-579 -578 0
580 -58 -578 0
-580 58 0
-580 578 0
581 579 580 0
-581 -579 0
-581 -580 0
582 -51 -581 0
-582 51 0
-582 581 0
583 208 582 0
-583 -208 0
-583 -582 0
584 -52 -578 0
-584 52 0
-584 578 0
585 -53 -577 0
-585 53 0
-585 577 0
586 584 585 0
-586 -584 0
-586 -585 0
587 -54 575 0
-587 54 0
-587 -575 0
588 255 587 0
-588 -255 0
-588 -587 0
589 -583 -586 0
-589 583 0
-589 586 0
590 -588 -589 0
-590 588 0
-590 589 0
591 266 -590 0
-591 -266 0
-591 590 0
592 -35 567 0
-592 35 0
-592 -567 0
593 -28 572 0
-593 28 0
-593 -572 0
594 592 593 0
-594 -592 0
-594 -593 0
595 212 -594 0
-595 -212 0
-595 594 0
596 45 -595 0
-596 -45 0
-596 595 0
597 -45 595 0
-597 45 0
-597 -595 0
598 596 597 0
-598 -596 0
-598 -597 0
599 -36 567 0
-599 36 0
-599 -567 0
600 -29 572 0
-600 29 0
-600 -572 0
601 599 600 0
-601 -599 0
-601 -600 0
602 212 -601 0
-602 -212 0
-602 601 0
603 -46 602 0
-603 46 0
-603 -602 0
604 46 -602 0
-604 -46 0
-604 602 0
605 -37 567 0
-605 37 0
-605 -567 0
606 -30 572 0
-606 30 0
-606 -572 0
607 605 606 0
-607 -605 0
-607 -606 0
608 212 -607 0
-608 -212 0
-608 607 0
609 -47 608 0
-609 47 0
-609 -608 0
610 604 -609 0
-610 -604 0
-610 609 0
611 47 -608 0
-611 -47 0
-611 608 0
612 604 611 0
-612 -604 0
-612 -611 0
613 -577 -612 0
-613 577 0
-613 612 0
614 576 -612 0
-614 -576 0
-614 612 0
615 -58 -614 0
-615 58 0
-615 614 0
616 603 610 0
-616 -603 0
-616 -610 0
617 613 -616 0
-617 -613 0
-617 616 0
618 615 -617 0
-618 -615 0
-618 617 0
619 598 -618 0
-619 -598 0
-619 618 0
620 -598 618 0
-620 598 0
-620 -618 0
621 619 620 0
-621 -619 0
-621 -620 0
622 -51 -621 0
-622 51 0
-622 621 0
623 273 622 0
-623 -273 0
-623 -622 0
624 -52 -598 0
-624 52 0
-624 598 0
625 -53 -597 0
-625 53 0
-625 597 0
626 624 625 0
-626 -624 0
-626 -625 0
627 -54 595 0
-627 54 0
-627 -595 0
628 319 627 0
-628 -319 0
-628 -627 0
629 -623 -626 0
-629 623 0
-629 626 0
630 -628 -629 0
-630 628 0
-630 629 0
631 603 604 0
-631 -603 0
-631 -604 0
632 -577 611 0
-632 577 0
-632 -611 0
633 576 611 0
-633 -576 0
-633 -611 0
634 -58 -633 0
-634 58 0
-634 633 0
635 609 632 0
-635 -609 0
-635 -632 0
636 634 -635 0
-636 -634 0
-636 635 0
637 631 -636 0
-637 -631 0
-637 636 0
638 -631 636 0
-638 631 0
-638 -636 0
639 637 638 0
-639 -637 0
-639 -638 0
640 -51 -639 0
-640 51 0
-640 639 0
641 323 640 0
-641 -323 0
-641 -640 0
642 -52 -631 0
-642 52 0
-642 631 0
643 -53 -603 0
-643 53 0
-643 603 0
644 642 643 0
-644 -642 0
-644 -643 0
645 -54 602 0
-645 54 0
-645 -602 0
646 341 645 0
-646 -341 0
-646 -645 0
647 -641 -644 0
-647 641 0
-647 644 0
648 -646 -647 0
-648 646 0
-648 647 0
649 347 -648 0
-649 -347 0
-649 648 0
650 609 611 0
-650 -609 0
-650 -611 0
651 -58 576 0
-651 58 0
-651 -576 0
652 577 651 0
-652 -577 0
-652 -651 0
653 650 -652 0
-653 -650 0
-653 652 0
654 -650 652 0
-654 650 0
-654 -652 0
655 653 654 0
-655 -653 0
-655 -654 0
656 -51 -655 0
-656 51 0
-656 655 0
657 351 656 0
-657 -351 0
-657 -656 0
658 -52 -650 0
-658 52 0
-658 650 0
659 -53 -609 0
-659 53 0
-659 609 0
660 658 659 0
-660 -658 0
-660 -659 0
661 -54 608 0
-661 54 0
-661 -608 0
662 369 661 0
-662 -369 0
-662 -661 0
663 -657 -660 0
-663 657 0
-663 660 0
664 -662 -663 0
-664 662 0
-664 663 0
665 372 -664 0
-665 -372 0
-665 664 0
666 -24 572 0
-666 24 0
-666 -572 0
667 382 666 0
-667 -382 0
-667 -666 0
668 -10 -214 0
-668 10 0
-668 214 0
669 -35 -668 0
-669 35 0
-669 668 0
670 389 669 0
-670 -389 0
-670 -669 0
671 -667 -670 0
-671 667 0
-671 670 0
672 -41 671 0
-672 41 0
-672 -671 0
673 -25 572 0
-673 25 0
-673 -572 0
674 396 673 0
-674 -396 0
-674 -673 0
675 -36 -668 0
-675 36 0
-675 668 0
676 389 675 0
-676 -389 0
-676 -675 0
677 -674 -676 0
-677 674 0
-677 676 0
678 -42 677 0
-678 42 0
-678 -677 0
679 42 -677 0
-679 -42 0
-679 677 0
680 -26 572 0
-680 26 0
-680 -572 0
681 410 680 0
-681 -410 0
-681 -680 0
682 -37 -668 0
-682 37 0
-682 668 0
683 389 682 0
-683 -389 0
-683 -682 0
684 -681 -683 0
-684 681 0
-684 683 0
685 -43 684 0
-685 43 0
-685 -684 0
686 679 -685 0
-686 -679 0
-686 685 0
687 43 -684 0
-687 -43 0
-687 684 0
688 -27 572 0
-688 27 0
-688 -572 0
689 425 688 0
-689 -425 0
-689 -688 0
690 -39 -668 0
-690 39 0
-690 668 0
691 389 690 0
-691 -389 0
-691 -690 0
692 -689 -691 0
-692 689 0
-692 691 0
693 -44 692 0
-693 44 0
-693 -692 0
694 679 687 0
-694 -679 0
-694 -687 0
695 -693 -694 0
-695 693 0
-695 694 0
696 44 -692 0
-696 -44 0
-696 692 0
697 596 618 0
-697 -596 0
-697 -618 0
698 597 697 0
-698 -597 0
-698 -697 0
699 -694 696 0
-699 694 0
-699 -696 0
700 698 -699 0
-700 -698 0
-700 699 0
701 678 686 0
-701 -678 0
-701 -686 0
702 695 -701 0
-702 -695 0
-702 701 0
703 700 -702 0
-703 -700 0
-703 702 0
704 41 -671 0
-704 -41 0
-704 671 0
705 703 704 0
-705 -703 0
-705 -704 0
706 672 705 0
-706 -672 0
-706 -705 0
707 693 696 0
-707 -693 0
-707 -696 0
708 -698 707 0
-708 698 0
-708 -707 0
709 698 -707 0
-709 -698 0
-709 707 0
710 708 709 0
-710 -708 0
-710 -709 0
711 -51 -710 0
-711 51 0
-711 710 0
712 454 711 0
-712 -454 0
-712 -711 0
713 -52 -707 0
-713 52 0
-713 707 0
714 -53 -693 0
-714 53 0
-714 693 0
715 713 714 0
-715 -713 0
-715 -714 0
716 -54 692 0
-716 54 0
-716 -692 0
717 468 716 0
-717 -468 0
-717 -716 0
718 -712 -715 0
-718 712 0
-718 715 0
719 -717 -718 0
-719 717 0
-719 718 0
720 672 704 0
-720 -672 0
-720 -704 0
721 -703 720 0
-721 703 0
-721 -720 0
722 703 -720 0
-722 -703 0
-722 720 0
723 721 722 0
-723 -721 0
-723 -722 0
724 -51 -723 0
-724 51 0
-724 723 0
725 472 724 0
-725 -472 0
-725 -724 0
726 -52 -720 0
-726 52 0
-726 720 0
727 -53 -672 0
-727 53 0
-727 672 0
728 726 727 0
-728 -726 0
-728 -727 0
729 -54 671 0
-729 54 0
-729 -671 0
730 483 729 0
-730 -483 0
-730 -729 0
731 -725 -728 0
-731 725 0
-731 728 0
732 -730 -731 0
-732 730 0
-732 731 0
733 678 679 0
-733 -678 0
-733 -679 0
734 687 -693 0
-734 -687 0
-734 693 0
735 687 696 0
-735 -687 0
-735 -696 0
736 698 -735 0
-736 -698 0
-736 735 0
737 685 734 0
-737 -685 0
-737 -734 0
738 736 -737 0
-738 -736 0
-738 737 0
739 733 -738 0
-739 -733 0
-739 738 0
740 -733 738 0
-740 733 0
-740 -738 0
741 739 740 0
-741 -739 0
-741 -740 0
742 -51 -741 0
-742 51 0
-742 741 0
743 487 742 0
-743 -487 0
-743 -742 0
744 -52 -733 0
-744 52 0
-744 733 0
745 -53 -678 0
-745 53 0
-745 678 0
746 744 745 0
-746 -744 0
-746 -745 0
747 -54 677 0
-747 54 0
-747 -677 0
748 503 747 0
-748 -503 0
-748 -747 0
749 -743 -746 0
-749 743 0
-749 746 0
750 -748 -749 0
-750 748 0
-750 749 0
751 685 687 0
-751 -685 0
-751 -687 0
752 696 698 0
-752 -696 0
-752 -698 0
753 693 752 0
-753 -693 0
-753 -752 0
754 751 -753 0
-754 -751 0
-754 753 0
755 -751 753 0
-755 751 0
-755 -753 0
756 754 755 0
-756 -754 0
-756 -755 0
757 -51 -756 0
-757 51 0
-757 756 0
758 507 757 0
-758 -507 0
-758 -757 0
759 -52 -751 0
-759 52 0
-759 751 0
760 -53 -685 0
-760 53 0
-760 685 0
761 759 760 0
-761 -759 0
-761 -760 0
762 -54 684 0
-762 54 0
-762 -684 0
763 523 762 0
-763 -523 0
-763 -762 0
764 -758 -761 0
-764 758 0
-764 761 0
765 -763 -764 0
-765 763 0
-765 764 0
766 104 -533 0
-766 -104 0
-766 533 0
767 -104 533 0
-767 104 0
-767 -533 0
768 766 767 0
-768 -766 0
-768 -767 0
769 105 -534 0
-769 -105 0
-769 534 0
770 -105 534 0
-770 105 0
-770 -534 0
771 769 770 0
-771 -769 0
-771 -770 0
772 -113 535 0
-772 113 0
-772 -535 0
773 113 -535 0
-773 -113 0
-773 535 0
774 772 773 0
-774 -772 0
-774 -773 0
775 -120 536 0
-775 120 0
-775 -536 0
776 120 -536 0
-776 -120 0
-776 536 0
777 775 776 0
-777 -775 0
-777 -776 0
778 -121 537 0
-778 121 0
-778 -537 0
779 121 -537 0
-779 -121 0
-779 537 0
780 778 779 0
-780 -778 0
-780 -779 0
781 -124 538 0
-781 124 0
-781 -538 0
782 124 -538 0
-782 -124 0
-782 538 0
783 781 782 0
-783 -781 0
-783 -782 0
784 165 -548 0
-784 -165 0
-784 548 0
785 -165 548 0
-785 165 0
-785 -548 0
786 784 785 0
-786 -784 0
-786 -785 0
787 207 -565 0
-787 -207 0
-787 565 0
788 -207 565 0
-788 207 0
-788 -565 0
789 787 788 0
-789 -787 0
-789 -788 0
790 -272 591 0
-790 272 0
-790 -591 0
791 272 -591 0
-791 -272 0
-791 591 0
792 790 791 0
-792 -790 0
-792 -791 0
793 -322 630 0
-793 322 0
-793 -630 0
794 322 -630 0
-794 -322 0
-794 630 0
795 793 794 0
-795 -793 0
-795 -794 0
796 -350 649 0
-796 350 0
-796 -649 0
797 350 -649 0
-797 -350 0
-797 649 0
798 796 797 0
-798 -796 0
-798 -797 0
799 -381 665 0
-799 381 0
-799 -665 0
800 381 -665 0
-800 -381 0
-800 665 0
801 799 800 0
-801 -799 0
-801 -800 0
802 -453 706 0
-802 453 0
-802 -706 0
803 453 -706 0
-803 -453 0
-803 706 0
804 802 803 0
-804 -802 0
-804 -803 0
805 -471 719 0
-805 471 0
-805 -719 0
806 471 -719 0
-806 -471 0
-806 719 0
807 805 806 0
-807 -805 0
-807 -806 0
808 -486 732 0
-808 486 0
-808 -732 0
809 486 -732 0
-809 -486 0
-809 732 0
810 808 809 0
-810 -808 0
-810 -809 0
811 -506 750 0
-811 506 0
-811 -750 0
812 506 -750 0
-812 -506 0
-812 750 0
813 811 812 0
-813 -811 0
-813 -812 0
814 -532 765 0
-814 532 0
-814 -765 0
815 532 -765 0
-815 -532 0
-815 765 0
816 814 815 0
-816 -814 0
-816 -815 0
817 -768 -771 0
-817 768 0
-817 771 0
818 -774 -817 0
-818 774 0
-818 817 0
819 -777 -780 0
-819 777 0
-819 780 0
820 -783 -819 0
-820 783 0
-820 819 0
821 -818 -820 0
-821 818 0
-821 820 0
822 -792 -795 0
-822 792 0
-822 795 0
823 -789 -822 0
-823 789 0
-823 822 0
824 -786 -823 0
-824 786 0
-824 823 0
825 -801 -804 0
-825 801 0
-825 804 0
826 -798 -825 0
-826 798 0
-826 825 0
827 -807 -810 0
-827 807 0
-827 810 0
828 -813 -816 0
-828 813 0
-828 816 0
829 -827 -828 0
-829 827 0
-829 828 0
830 -826 -829 0
-830 826 0
-830 829 0
831 -824 -830 0
-831 824 0
-831 830 0
832 -821 -831 0
-832 821 0
-832 831 0
97 832 0
-97 -832 0
97 0
w 1 0.500000
w 2 0.500000
w 3 0.500000
w 4 0.500000
w 5 0.500000
w 6 0.500000
w 7 0.500000
w 8 0.500000
w 9 0.500000
w 10 0.500000
w 11 0.500000
w 12 0.500000
w 13 0.500000
w 14 0.500000
w 15 0.500000
w 16 0.500000
w 17 0.500000
w 18 0.500000
w 19 0.500000
w 20 0.500000
w 21 0.500000
w 22 0.500000
w 23 0.500000
w 24 0.500000
w 25 0.500000
w 26 0.500000
w 27 0.500000
w 28 0.500000
w 29 0.500000
w 30 0.500000
w 31 0.500000
w 32 0.500000
w 33 0.500000
w 34 0.500000
w 35 0.500000
w 36 0.500000
w 37 0.500000
w 38 0.500000
w 39 0.500000
w 40 0.500000
w 41 0.500000
w 42 0.500000
w 43 0.500000
w 44 0.500000
w 45 0.500000
w 46 0.500000
w 47 0.500000
w 48 0.500000
w 49 0.500000
w 50 0.500000
w 51 0.500000
w 52 0.500000
w 53 0.500000
w 54 0.500000
w 55 0.500000
w 56 0.500000
w 57 0.500000
w 58 0.500000
w 59 0.500000
w 60 0.500000
w 61 0.125000
w 62 0.125000
w 63 0.125000
w 64 0.125000
w 65 0.125000
w 66 0.125000
w 67 0.125000
w 68 0.125000
w 69 0.125000
w 70 0.125000
w 71 0.125000
w 72 0.125000
w 73 0.125000
w 74 0.125000
w 75 0.125000
w 76 0.125000
w 77 0.125000
w 78 0.125000
w 79 0.125000
w 80 0.125000
w 81 0.125000
w 82 0.125000
w 83 0.125000
w 84 0.125000
w 85 0.125000
w 86 0.125000
w 87 0.125000
w 88 0.125000
w 89 0.125000
w 90 0.125000
w 91 0.125000
w 92 0.125000
w 93 0.125000
w 94 0.125000
w 95 0.125000
w 96 0.125000
w 98 -1
w 100 -1
w 101 -1
w 102 -1
w 103 -1
w 104 -1
w 105 -1
w 107 -1
w 108 -1
w 110 -1
w 111 -1
w 112 -1
w 113 -1
w 114 -1
w 116 -1
w 117 -1
w 118 -1
w 119 -1
w 120 -1
w 121 -1
w 124 -1
w 125 -1
w 126 -1
w 133 -1
w 134 -1
w 135 -1
w 136 -1
w 137 -1
w 138 -1
w 139 -1
w 140 -1
w 141 -1
w 142 -1
w 143 -1
w 144 -1
w 145 -1
w 146 -1
w 147 -1
w 148 -1
w 149 -1
w 150 -1
w 151 -1
w 152 -1
w 153 -1
w 154 -1
w 155 -1
w 156 -1
w 157 -1
w 158 -1
w 159 -1
w 160 -1
w 161 -1
w 162 -1
w 163 -1
w 164 -1
w 165 -1
w 166 -1
w 167 -1
w 168 -1
w 169 -1
w 170 -1
w 171 -1
w 172 -1
w 173 -1
w 174 -1
w 175 -1
w 176 -1
w 177 -1
w 178 -1
w 179 -1
w 180 -1
w 181 -1
w 182 -1
w 183 -1
w 184 -1
w 185 -1
w 186 -1
w 187 -1
w 188 -1
w 189 -1
w 190 -1
w 191 -1
w 192 -1
w 193 -1
w 194 -1
w 195 -1
w 196 -1
w 197 -1
w 198 -1
w 199 -1
w 200 -1
w 201 -1
w 202 -1
w 203 -1
w 204 -1
w 205 -1
w 206 -1
w 207 -1
w 208 -1
w 209 -1
w 210 -1
w 211 -1
w 212 -1
w 213 -1
w 214 -1
w 215 -1
w 216 -1
w 217 -1
w 218 -1
w 219 -1
w 220 -1
w 221 -1
w 222 -1
w 223 -1
w 224 -1
w 225 -1
w 226 -1
w 227 -1
w 228 -1
w 229 -1
w 230 -1
w 231 -1
w 232 -1
w 233 -1
w 234 -1
w 235 -1
w 236 -1
w 237 -1
w 238 -1
w 239 -1
w 240 -1
w 241 -1
w 242 -1
w 243 -1
w 244 -1
w 245 -1
w 246 -1
w 247 -1
w 248 -1
w 249 -1
w 250 -1
w 251 -1
w 252 -1
w 253 -1
w 254 -1
w 255 -1
w 256 -1
w 257 -1
w 258 -1
w 259 -1
w 260 -1
w 261 -1
w 262 -1
w 263 -1
w 264 -1
w 265 -1
w 266 -1
w 267 -1
w 268 -1
w 269 -1
w 270 -1
w 271 -1
w 272 -1
w 273 -1
w 274 -1
w 275 -1
w 276 -1
w 277 -1
w 278 -1
w 279 -1
w 280 -1
w 281 -1
w 282 -1
w 283 -1
w 284 -1
w 285 -1
w 286 -1
w 287 -1
w 288 -1
w 289 -1
w 290 -1
w 291 -1
w 292 -1
w 293 -1
w 294 -1
w 295 -1
w 296 -1
w 297 -1
w 298 -1
w 299 -1
w 300 -1
w 301 -1
w 302 -1
w 303 -1
w 304 -1
w 305 -1
w 306 -1
w 307 -1
w 308 -1
w 309 -1
w 310 -1
w 311 -1
w 312 -1
w 313 -1
w 314 -1
w 315 -1
w 316 -1
w 317 -1
w 318 -1
w 319 -1
w 320 -1
w 321 -1
w 322 -1
w 323 -1
w 324 -1
w 325 -1
w 326 -1
w 327 -1
w 328 -1
w 329 -1
w 330 -1
w 331 -1
w 332 -1
w 333 -1
w 334 -1
w 335 -1
w 336 -1
w 337 -1
w 338 -1
w 339 -1
w 340 -1
w 341 -1
w 342 -1
w 343 -1
w 344 -1
w 345 -1
w 346 -1
w 347 -1
w 348 -1
w 349 -1
w 350 -1
w 351 -1
w 352 -1
w 353 -1
w 354 -1
w 355 -1
w 356 -1
w 357 -1
w 358 -1
w 359 -1
w 360 -1
w 361 -1
w 362 -1
w 363 -1
w 364 -1
w 365 -1
w 366 -1
w 367 -1
w 368 -1
w 369 -1
w 370 -1
w 371 -1
w 372 -1
w 373 -1
w 374 -1
w 375 -1
w 376 -1
w 377 -1
w 378 -1
w 379 -1
w 380 -1
w 381 -1
w 382 -1
w 383 -1
w 384 -1
w 385 -1
w 386 -1
w 387 -1
w 388 -1
w 389 -1
w 390 -1
w 391 -1
w 392 -1
w 393 -1
w 394 -1
w 395 -1
w 396 -1
w 397 -1
w 398 -1
w 399 -1
w 400 -1
w 401 -1
w 402 -1
w 403 -1
w 404 -1
w 405 -1
w 406 -1
w 407 -1
w 408 -1
w 409 -1
w 410 -1
w 411 -1
w 412 -1
w 413 -1
w 414 -1
w 415 -1
w 416 -1
w 417 -1
w 418 -1
w 419 -1
w 420 -1
w 421 -1
w 422 -1
w 423 -1
w 424 -1
w 425 -1
w 426 -1
w 427 -1
w 428 -1
w 429 -1
w 430 -1
w 431 -1
w 432 -1
w 433 -1
w 434 -1
w 435 -1
w 436 -1
w 437 -1
w 438 -1
w 439 -1
w 440 -1
w 441 -1
w 442 -1
w 443 -1
w 444 -1
w 445 -1
w 446 -1
w 447 -1
w 448 -1
w 449 -1
w 450 -1
w 451 -1
w 452 -1
w 453 -1
w 454 -1
w 455 -1
w 456 -1
w 457 -1
w 458 -1
w 459 -1
w 460 -1
w 461 -1
w 462 -1
w 463 -1
w 464 -1
w 465 -1
w 466 -1
w 467 -1
w 468 -1
w 469 -1
w 470 -1
w 471 -1
w 472 -1
w 473 -1
w 474 -1
w 475 -1
w 476 -1
w 477 -1
w 478 -1
w 479 -1
w 480 -1
w 481 -1
w 482 -1
w 483 -1
w 484 -1
w 485 -1
w 486 -1
w 487 -1
w 488 -1
w 489 -1
w 490 -1
w 491 -1
w 492 -1
w 493 -1
w 494 -1
w 495 -1
w 496 -1
w 497 -1
w 498 -1
w 499 -1
w 500 -1
w 501 -1
w 502 -1
w 503 -1
w 504 -1
w 505 -1
w 506 -1
w 507 -1
w 508 -1
w 509 -1
w 510 -1
w 511 -1
w 512 -1
w 513 -1
w 514 -1
w 515 -1
w 516 -1
w 517 -1
w 518 -1
w 519 -1
w 520 -1
w 521 -1
w 522 -1
w 523 -1
w 524 -1
w 525 -1
w 526 -1
w 527 -1
w 528 -1
w 529 -1
w 530 -1
w 531 -1
w 532 -1
w 533 -1
w 534 -1
w 535 -1
w 536 -1
w 537 -1
w 538 -1
w 539 -1
w 540 -1
w 541 -1
w 542 -1
w 543 -1
w 544 -1
w 545 -1
w 546 -1
w 547 -1
w 548 -1
w 549 -1
w 550 -1
w 551 -1
w 552 -1
w 553 -1
w 554 -1
w 555 -1
w 556 -1
w 557 -1
w 558 -1
w 559 -1
w 560 -1
w 561 -1
w 562 -1
w 563 -1
w 564 -1
w 565 -1
w 566 -1
w 567 -1
w 568 -1
w 569 -1
w 570 -1
w 571 -1
w 572 -1
w 573 -1
w 574 -1
w 575 -1
w 576 -1
w 577 -1
w 578 -1
w 579 -1
w 580 -1
w 581 -1
w 582 -1
w 583 -1
w 584 -1
w 585 -1
w 586 -1
w 587 -1
w 588 -1
w 589 -1
w 590 -1
w 591 -1
w 592 -1
w 593 -1
w 594 -1
w 595 -1
w 596 -1
w 597 -1
w 598 -1
w 599 -1
w 600 -1
w 601 -1
w 602 -1
w 603 -1
w 604 -1
w 605 -1
w 606 -1
w 607 -1
w 608 -1
w 609 -1
w 610 -1
w 611 -1
w 612 -1
w 613 -1
w 614 -1
w 615 -1
w 616 -1
w 617 -1
w 618 -1
w 619 -1
w 620 -1
w 621 -1
w 622 -1
w 623 -1
w 624 -1
w 625 -1
w 626 -1
w 627 -1
w 628 -1
w 629 -1
w 630 -1
w 631 -1
w 632 -1
w 633 -1
w 634 -1
w 635 -1
w 636 -1
w 637 -1
w 638 -1
w 639 -1
w 640 -1
w 641 -1
w 642 -1
w 643 -1
w 644 -1
w 645 -1
w 646 -1
w 647 -1
w 648 -1
w 649 -1
w 650 -1
w 651 -1
w 652 -1
w 653 -1
w 654 -1
w 655 -1
w 656 -1
w 657 -1
w 658 -1
w 659 -1
w 660 -1
w 661 -1
w 662 -1
w 663 -1
w 664 -1
w 665 -1
w 666 -1
w 667 -1
w 668 -1
w 669 -1
w 670 -1
w 671 -1
w 672 -1
w 673 -1
w 674 -1
w 675 -1
w 676 -1
w 677 -1
w 678 -1
w 679 -1
w 680 -1
w 681 -1
w 682 -1
w 683 -1
w 684 -1
w 685 -1
w 686 -1
w 687 -1
w 688 -1
w 689 -1
w 690 -1
w 691 -1
w 692 -1
w 693 -1
w 694 -1
w 695 -1
w 696 -1
w 697 -1
w 698 -1
w 699 -1
w 700 -1
w 701 -1
w 702 -1
w 703 -1
w 704 -1
w 705 -1
w 706 -1
w 707 -1
w 708 -1
w 709 -1
w 710 -1
w 711 -1
w 712 -1
w 713 -1
w 714 -1
w 715 -1
w 716 -1
w 717 -1
w 718 -1
w 719 -1
w 720 -1
w 721 -1
w 722 -1
w 723 -1
w 724 -1
w 725 -1
w 726 -1
w 727 -1
w 728 -1
w 729 -1
w 730 -1
w 731 -1
w 732 -1
w 733 -1
w 734 -1
w 735 -1
w 736 -1
w 737 -1
w 738 -1
w 739 -1
w 740 -1
w 741 -1
w 742 -1
w 743 -1
w 744 -1
w 745 -1
w 746 -1
w 747 -1
w 748 -1
w 749 -1
w 750 -1
w 751 -1
w 752 -1
w 753 -1
w 754 -1
w 755 -1
w 756 -1
w 757 -1
w 758 -1
w 759 -1
w 760 -1
w 761 -1
w 762 -1
w 763 -1
w 764 -1
w 765 -1
w 766 -1
w 767 -1
w 768 -1
w 769 -1
w 770 -1
w 771 -1
w 772 -1
w 773 -1
w 774 -1
w 775 -1
w 776 -1
w 777 -1
w 778 -1
w 779 -1
w 780 -1
w 781 -1
w 782 -1
w 783 -1
w 784 -1
w 785 -1
w 786 -1
w 787 -1
w 788 -1
w 789 -1
w 790 -1
w 791 -1
w 792 -1
w 793 -1
w 794 -1
w 795 -1
w 796 -1
w 797 -1
w 798 -1
w 799 -1
w 800 -1
w 801 -1
w 802 -1
w 803 -1
w 804 -1
w 805 -1
w 806 -1
w 807 -1
w 808 -1
w 809 -1
w 810 -1
w 811 -1
w 812 -1
w 813 -1
w 814 -1
w 815 -1
w 816 -1
w 817 -1
w 818 -1
w 819 -1
w 820 -1
w 821 -1
w 822 -1
w 823 -1
w 824 -1
w 825 -1
w 826 -1
w 827 -1
w 828 -1
w 829 -1
w 830 -1
w 831 -1
w 832 -1
w 97 -1
